Route 1: 23 41 67 168 18 164 181 183 8 45 150 26 161 79 91 73 59 78 151 38 128 200 191 184 132 102 196 122 124 57 70 174 89 16 17 166 84 157 58 173 5 22 138 156 55 96 86 154 169 85 153 53 148 99 171 163 80
Route 2: 34 4 74 36 192 62 179 199 131 47 116 56 61 119 143 77 65 19 92 152 43 118 88 103 51 15 147 195 29 172 120 9 129 49 158 144 180 111 113 82 2 106 108 188 76 182 54 110 109 12 25 87 190 52 175 72 39 115
Route 3: 100 137 117 139 31 60 95 194 197 167 71 48 44 6 21 32 13 27 40 193 146 68 178 145 107 159 187 7 186 75 69 185 125 160 42 101 127 114 24 136 50 112 30 46 10 126 140 1
Route 4: 33 162 35 177 134 94 63 104 3 165 135 170 14 133 90 141 66 142 176 105 11 123 130 198 93 64 149 20 189 121 98 83 28 97 155
Route 5: 81 37
Vehicles: 5
Distance: 4842.83
